N = 7;
H = 5;
T = 2;

avail = array3d(1..N, 1..H, 1..T, [3, 1, 1, 5, 3, 5, 8, 5, 10, 4, 4, 3, 10, 10, 6, 4, 3, 10, 5, 7, 3, 2, 7, 9, 6, 3, 8, 2, 1, 10, 1, 5, 7, 10, 8, 7, 3, 8, 1, 2, 0, 9, 3, 5, 7, 1, 2, 0, 0, 0, 7, 2, 7, 7, 10, 4, 3, 5, 10, 7, 0, 0, 10, 2, 1, 3, 4, 3, 8, 6]);

r = array2d(1..H, 1..T, [1, 2, 3, 3, 2, 2, 1, 2, 1, 0]);
